33 33
23
3 3 0 30
3 4 10 21
3 5 7 15
3 6 26 0
3 7 10 14
3 8 10 25
3 9 23 0
3 10 26 23
3 13 7 20
3 14 10 0
3 15 7 0
3 17 26 6
3 24 23 9
3 30 4 0
3 33 20 0
4 3 3 30
4 4 29 29
4 6 0 0
4 10 0 6
4 12 29 0
4 14 0 16
4 17 29 12
7 33 13 0
